p cnf 59 143
-7 -8 0 
-9 -10 0 
-10 -11 0 
-12 -13 14 0 
-12 13 36 0 
-13 -6 0 
-14 -15 24 0 
-14 15 34 0 
-1 2 0 
-2 1 0 
-15 -16 0 
-16 17 0 
-17 -18 -21 0 
-17 18 21 0 
-18 -19 0 
-19 -20 0 
-21 -22 0 
-22 -23 0 
-24 25 0 
-25 -26 0 
-26 27 0 
-27 -28 -31 0 
-27 28 31 0 
-28 -29 0 
-29 -30 0 
-31 -32 0 
-32 -33 0 
-34 35 0 
-35 -31 0 
-36 -37 38 0 
-36 37 24 0 
-37 18 0 
-38 -15 24 0 
-38 15 39 0 
-39 -40 46 0 
-39 40 58 0 
-40 -41 0 
-41 42 0 
-42 -9 -43 0 
-42 9 43 0 
-43 -44 0 
-44 -45 0 
-3 12 0 
3 59 0 
-46 -47 48 0 
-46 47 55 0 
-47 -9 0 
-48 -49 55 0 
-48 49 34 0 
-49 -50 0 
-50 51 0 
-51 -21 -52 0 
-51 21 52 0 
-52 -53 0 
-53 -54 0 
-3 -4 0 
-55 56 57 0 
-56 31 0 
-57 25 34 0 
-58 -47 34 0 
-58 47 55 0 
-59 -13 34 0 
-59 13 36 0 
-4 5 0 
-5 -6 -9 0 
-5 6 9 0 
-6 -7 0 
7 8 0 
9 10 0 
10 11 0 
12 -13 -14 0 
12 -14 -36 0 
12 13 -36 0 
13 6 0 
14 -15 -24 0 
14 -24 -34 0 
14 15 -34 0 
15 16 0 
16 -17 0 
17 -18 21 0 
17 -21 18 0 
18 19 0 
19 20 0 
21 22 0 
22 23 0 
24 -25 0 
25 26 0 
26 -27 0 
27 -28 31 0 
27 -31 28 0 
28 29 0 
29 30 0 
31 32 0 
32 33 0 
34 -35 0 
35 31 0 
36 -37 -38 0 
36 -38 -24 0 
36 37 -24 0 
37 -18 0 
38 -15 -24 0 
38 -24 -39 0 
38 15 -39 0 
39 -40 -46 0 
39 -46 -58 0 
39 40 -58 0 
40 41 0 
41 -42 0 
42 -9 43 0 
42 -43 9 0 
43 44 0 
44 45 0 
46 -47 -48 0 
46 -48 -55 0 
46 47 -55 0 
47 9 0 
48 -49 -55 0 
48 -55 -34 0 
48 49 -34 0 
49 50 0 
50 -51 0 
51 -21 52 0 
51 -52 21 0 
52 53 0 
53 54 0 
3 4 0 
55 -57 0 
55 -56 0 
55 56 -57 0 
56 -31 0 
57 -34 0 
57 -25 0 
57 25 -34 0 
58 -34 -55 0 
58 -47 -34 0 
58 47 -55 0 
59 -13 -34 0 
59 -34 -36 0 
59 13 -36 0 
4 -5 0 
5 -9 6 0 
5 -6 9 0 
6 7 0 
